# Solution for model osmosis_srl_ilp
# Objective value = 4.1151157338847746e+00
Z_612_0_0 0
Z_612_0_1 0
Z_612_0_2 1
Z_612_0_3 0
Z_612_0_4 0
Z_296_2_0 0
Z_296_2_1 0
Z_296_2_2 0
Z_296_2_3 0
Z_296_2_4 1
Z_296_1_0 0
Z_296_1_1 0
Z_296_1_2 0
Z_296_1_3 0
Z_296_1_4 1
Z_296_3_0 0
Z_296_3_1 0
Z_296_3_2 0
Z_296_3_3 0
Z_296_3_4 1
Z_296_0_0 0
Z_296_0_1 0
Z_296_0_2 1
Z_296_0_3 0
Z_296_0_4 0
Z_196_0_0 0
Z_196_0_1 0
Z_196_0_2 0
Z_196_0_3 1
Z_196_0_4 0
Z_104_0_0 0
Z_104_0_1 0
Z_104_0_2 1
Z_104_0_3 0
Z_104_0_4 0
